# Objective value = 1.9748372955079803e+03
x[0] 1
x[1] 0
x[2] 0
x[3] 1
x[4] 0
x[5] 1
x[6] 0
x[7] 0
x[8] 0
x[9] 1
x[10] 1
x[11] 0
x[12] 1
x[13] 0
x[14] 1
x[15] 0
x[16] 0
x[17] 1
x[18] 0
x[19] 1
x[20] 1
x[21] 1
x[22] 0
x[23] 1
x[24] 1
x[25] 1
x[26] 1
x[27] 1
x[28] 0
x[29] 1
x[30] 1
x[31] 1
x[32] 1
x[33] 1
x[34] 0
x[35] 1
x[36] 1
x[37] 0
x[38] 0
x[39] 1
x[40] 0
x[41] 1
x[42] 0
x[43] 1
x[44] 0
x[45] 1
x[46] 0
x[47] 0
x[48] 1
x[49] 1
x[50] 1
x[51] 0
x[52] 0
x[53] 0
x[54] 1
x[55] 0
x[56] 1
x[57] 1
x[58] 1
x[59] 1
x[60] 0
x[61] 0
x[62] 0
x[63] 1
x[64] 1
x[65] 1
x[66] 1
x[67] 0
x[68] 1
x[69] 0
x[70] 1
x[71] 1
x[72] 1
x[73] 1
x[74] 1
x[75] 1
x[76] 0
x[77] 1
x[78] 0
x[79] 0
x[80] 0
x[81] 0
x[82] 1
x[83] 0
x[84] 0
x[85] 0
x[86] 1
x[87] 1
x[88] 0
x[89] 1
x[90] 1
x[91] 1
x[92] 0
x[93] 1
x[94] 0
x[95] 0
x[96] 1
x[97] 1
x[98] 0
x[99] 0
x[100] 1
x[101] 1
x[102] 0
x[103] 0
x[104] 1
x[105] 0
x[106] 1
x[107] 1
x[108] 1
x[109] 1
x[110] 0
x[111] 1
x[112] 0
x[113] 1
x[114] 1
x[115] 0
x[116] 0
x[117] 1
x[118] 1
x[119] 0
x[120] 1
x[121] 0
x[122] 0
x[123] 1
x[124] 1
x[125] 0
x[126] 1
x[127] 0
x[128] 1
x[129] 1
x[130] 0
x[131] 0
x[132] 1
x[133] 1
x[134] 0
x[135] 0
x[136] 0
x[137] 0
x[138] 1
x[139] 1
x[140] 0
x[141] 0
x[142] 1
x[143] 0
x[144] 1
x[145] 1
x[146] 0
x[147] 1
x[148] 1
x[149] 1
x[150] 1
x[151] 1
x[152] 0
x[153] 1
x[154] 1
x[155] 1
x[156] 0
x[157] 1
x[158] 1
x[159] 0
x[160] 1
x[161] 0
x[162] 0
x[163] 0
x[164] 1
x[165] 0
x[166] 1
x[167] 0
x[168] 1
x[169] 0
x[170] 1
x[171] 1
x[172] 1
x[173] 1
x[174] 0
x[175] 1
x[176] 1
x[177] 1
x[178] 0
x[179] 1
x[180] 0
x[181] 1
x[182] 1
x[183] 0
x[184] 1
x[185] 1
x[186] 0
x[187] 0
x[188] 1
x[189] 1
x[190] 0
x[191] 1
x[192] 1
x[193] 1
x[194] 0
x[195] 0
x[196] 0
x[197] 1
x[198] 1
x[199] 0
x[200] 0
x[201] 1
x[202] 1
x[203] 0
x[204] 0
x[205] 0
x[206] 0
x[207] 0
x[208] 1
x[209] 0
x[210] 1
x[211] 1
x[212] 1
x[213] 0
x[214] 1
x[215] 0
x[216] 0
x[217] 1
x[218] 0
x[219] 1
x[220] 1
x[221] 1
x[222] 0
x[223] 1
x[224] 0
x[225] 1
x[226] 1
x[227] 0
x[228] 1
x[229] 1
x[230] 1
x[231] 1
x[232] 0
x[233] 0
x[234] 1
x[235] 0
x[236] 0
x[237] 1
x[238] 1
x[239] 1
x[240] 1
x[241] 0
x[242] 1
x[243] 1
x[244] 1
x[245] 1
x[246] 1
x[247] 1
x[248] 1
x[249] 1
x[250] 1
x[251] 0
x[252] 0
x[253] 1
x[254] 1
x[255] 0
x[256] 0
x[257] 0
x[258] 0
x[259] 1
x[260] 0
x[261] 1
x[262] 0
x[263] 0
x[264] 0
x[265] 0
x[266] 1
x[267] 0
x[268] 1
x[269] 1
x[270] 1
x[271] 0
x[272] 1
x[273] 0
x[274] 0
x[275] 1
x[276] 1
x[277] 0
x[278] 1
x[279] 0
x[280] 0
x[281] 1
x[282] 0
x[283] 0
x[284] 1
x[285] 0
x[286] 1
x[287] 1
x[288] 0
x[289] 0
x[290] 0
x[291] 0
x[292] 1
x[293] 0
x[294] 0
x[295] 0
x[296] 0
x[297] 0
x[298] 0
x[299] 1
x[300] 1
x[301] 0
x[302] 1
x[303] 1
x[304] 0
x[305] 1
x[306] 1
x[307] 0
x[308] 1
x[309] 1
x[310] 1
x[311] 1
x[312] 0
x[313] 0
x[314] 0
x[315] 1
x[316] 1
x[317] 0
x[318] 0
x[319] 0
x[320] 1
x[321] 0
x[322] 0
x[323] 0
x[324] 0
x[325] 1
x[326] 1
x[327] 0
x[328] 1
x[329] 1
x[330] 1
x[331] 1
x[332] 1
x[333] 0
x[334] 1
x[335] 0
x[336] 0
x[337] 0
x[338] 1
x[339] 0
x[340] 1
x[341] 1
x[342] 1
x[343] 1
x[344] 1
x[345] 1
x[346] 1
x[347] 1
x[348] 1
x[349] 0
x[350] 1
x[351] 1
x[352] 0
x[353] 0
x[354] 1
x[355] 0
x[356] 1
x[357] 0
x[358] 1
x[359] 1
x[360] 1
x[361] 1
x[362] 0
x[363] 1
x[364] 1
x[365] 1
x[366] 1
x[367] 0
x[368] 1
x[369] 0
x[370] 0
x[371] 0
x[372] 0
x[373] 1
x[374] 1
x[375] 0
x[376] 1
x[377] 1
x[378] 1
x[379] 0
x[380] 0
x[381] 1
x[382] 0
x[383] 0
x[384] 1
x[385] 0
x[386] 1
x[387] 0
x[388] 1
x[389] 1
x[390] 0
x[391] 0
x[392] 1
x[393] 1
x[394] 1
x[395] 1
x[396] 0
x[397] 0
x[398] 1
x[399] 1
x[400] 1
x[401] 0
x[402] 0
x[403] 0
x[404] 1
x[405] 0
x[406] 1
x[407] 0
x[408] 0
x[409] 1
x[410] 1
x[411] 1
x[412] 1
x[413] 1
x[414] 1
x[415] 0
x[416] 0
x[417] 0
x[418] 0
x[419] 0
x[420] 1
x[421] 1
x[422] 1
x[423] 0
x[424] 0
x[425] 1
x[426] 1
x[427] 1
x[428] 0
x[429] 0
x[430] 0
x[431] 1
x[432] 1
x[433] 0
x[434] 1
x[435] 1
x[436] 1
x[437] 0
x[438] 0
x[439] 0
x[440] 0
x[441] 1
x[442] 1
x[443] 1
x[444] 1
x[445] 1
x[446] 1
x[447] 0
x[448] 0
x[449] 1
x[450] 1
x[451] 0
x[452] 1
x[453] 1
x[454] 1
x[455] 1
x[456] 0
x[457] 0
x[458] 0
x[459] 1
x[460] 1
x[461] 1
x[462] 0
x[463] 1
x[464] 1
x[465] 1
x[466] 1
x[467] 0
x[468] 1
x[469] 1
x[470] 0
x[471] 1
x[472] 0
x[473] 1
x[474] 1
x[475] 0
x[476] 0
x[477] 1
x[478] 1
x[479] 1
x[480] 0
x[481] 1
x[482] 1
x[483] 0
x[484] 0
x[485] 1
x[486] 0
x[487] 1
x[488] 1
x[489] 1
x[490] 0
x[491] 1
x[492] 0
x[493] 0
x[494] 0
x[495] 0
x[496] 1
x[497] 1
x[498] 1
x[499] 1
x[500] 0
x[501] 1
x[502] 1
x[503] 1
x[504] 1
x[505] 0
x[506] 0
x[507] 1
x[508] 0
x[509] 1
x[510] 1
x[511] 0
x[512] 1
x[513] 0
x[514] 1
x[515] 1
x[516] 1
x[517] 0
x[518] 1
x[519] 0
x[520] 1
x[521] 1
x[522] 1
x[523] 0
x[524] 0
x[525] 1
x[526] 1
x[527] 1
x[528] 0
x[529] 0
x[530] 1
x[531] 0
x[532] 1
x[533] 1
x[534] 1
x[535] 1
x[536] 0
x[537] 0
x[538] 1
x[539] 0
x[540] 1
x[541] 1
x[542] 0
x[543] 1
x[544] 0
x[545] 1
x[546] 1
x[547] 0
x[548] 0
x[549] 0
x[550] 0
x[551] 0
x[552] 0
x[553] 0
x[554] 1
x[555] 1
x[556] 1
x[557] 1
x[558] 1
x[559] 0
x[560] 1
x[561] 1
x[562] 0
x[563] 0
x[564] 0
x[565] 1
x[566] 0
x[567] 0
x[568] 1
x[569] 1
x[570] 0
x[571] 0
x[572] 1
x[573] 0
x[574] 1
x[575] 0
x[576] 0
x[577] 0
x[578] 1
x[579] 0
x[580] 1
x[581] 1
x[582] 0
x[583] 0
x[584] 0
x[585] 1
x[586] 1
x[587] 1
x[588] 1
x[589] 1
x[590] 0
x[591] 1
x[592] 0
x[593] 1
x[594] 0
x[595] 1
x[596] 1
x[597] 1
x[598] 1
x[599] 1
x[600] 1
x[601] 0
x[602] 1
x[603] 1
x[604] 1
x[605] 1
x[606] 1
x[607] 1
x[608] 1
x[609] 0
x[610] 1
x[611] 0
x[612] 0
x[613] 1
x[614] 0
x[615] 1
x[616] 0
x[617] 1
x[618] 1
x[619] 1
x[620] 0
x[621] 0
x[622] 0
x[623] 0
x[624] 1
x[625] 0
x[626] 0
x[627] 0
x[628] 1
x[629] 0
x[630] 1
x[631] 1
x[632] 0
x[633] 0
x[634] 0
x[635] 1
x[636] 0
x[637] 1
x[638] 1
x[639] 0
x[640] 1
x[641] 0
x[642] 1
x[643] 0
x[644] 1
x[645] 1
x[646] 1
x[647] 1
x[648] 0
x[649] 1
x[650] 0
x[651] 1
x[652] 0
x[653] 1
x[654] 1
x[655] 1
x[656] 1
x[657] 1
x[658] 1
x[659] 1
x[660] 1
x[661] 0
x[662] 1
x[663] 0
x[664] 1
x[665] 1
x[666] 1
x[667] 1
x[668] 0
x[669] 1
x[670] 1
x[671] 1
x[672] 1
x[673] 1
x[674] 0
x[675] 1
x[676] 0
x[677] 0
x[678] 1
x[679] 0
x[680] 1
x[681] 0
x[682] 1
x[683] 1
x[684] 1
x[685] 0
x[686] 1
x[687] 1
x[688] 1
x[689] 1
x[690] 1
x[691] 1
x[692] 0
x[693] 1
x[694] 0
x[695] 1
x[696] 0
x[697] 0
x[698] 0
x[699] 0
x[700] 0
x[701] 1
x[702] 1
x[703] 1
x[704] 1
x[705] 0
x[706] 0
x[707] 1
x[708] 0
x[709] 0
x[710] 1
x[711] 1
x[712] 1
x[713] 1
x[714] 1
x[715] 0
x[716] 1
x[717] 0
x[718] 1
x[719] 1
x[720] 0
x[721] 0
x[722] 1
x[723] 0
x[724] 1
x[725] 1
x[726] 0
x[727] 0
x[728] 1
x[729] 1
x[730] 1
x[731] 1
x[732] 1
x[733] 0
x[734] 0
x[735] 0
x[736] 1
x[737] 1
x[738] 1
x[739] 1
x[740] 1
x[741] 0
x[742] 1
x[743] 1
x[744] 0
x[745] 1
x[746] 1
x[747] 1
x[748] 0
x[749] 0
x[750] 0
x[751] 1
x[752] 0
x[753] 1
x[754] 0
x[755] 1
x[756] 0
x[757] 0
x[758] 0
x[759] 1
x[760] 1
x[761] 1
x[762] 1
x[763] 1
x[764] 0
x[765] 1
x[766] 0
x[767] 1
x[768] 1
x[769] 1
x[770] 0
x[771] 0
x[772] 0
x[773] 0
x[774] 0
x[775] 0
x[776] 0
x[777] 0
x[778] 0
x[779] 0
x[780] 1
x[781] 1
x[782] 1
x[783] 0
x[784] 1
x[785] 0
x[786] 0
x[787] 1
x[788] 1
x[789] 1
x[790] 0
x[791] 1
x[792] 1
x[793] 1
x[794] 0
x[795] 0
x[796] 1
x[797] 1
x[798] 0
x[799] 0
x[800] 0
x[801] 1
x[802] 0
x[803] 1
x[804] 0
x[805] 1
x[806] 1
x[807] 1
x[808] 0
x[809] 0
x[810] 0
x[811] 1
x[812] 1
x[813] 1
x[814] 1
x[815] 0
x[816] 0
x[817] 1
x[818] 1
x[819] 0
x[820] 0
x[821] 1
x[822] 1
x[823] 1
x[824] 1
x[825] 0
x[826] 0
x[827] 1
x[828] 1
x[829] 0
x[830] 0
x[831] 1
x[832] 0
x[833] 0
x[834] 1
x[835] 0
x[836] 1
x[837] 1
x[838] 1
x[839] 1
x[840] 1
x[841] 0
x[842] 0
x[843] 1
x[844] 1
x[845] 0
x[846] 1
x[847] 1
x[848] 1
x[849] 0
x[850] 1
x[851] 1
x[852] 1
x[853] 1
x[854] 1
x[855] 1
x[856] 0
x[857] 0
x[858] 0
x[859] 0
x[860] 1
x[861] 1
x[862] 0
x[863] 0
x[864] 0
x[865] 1
x[866] 0
x[867] 0
x[868] 1
x[869] 1
x[870] 1
x[871] 1
x[872] 0
x[873] 0
x[874] 0
x[875] 0
x[876] 0
x[877] 1
x[878] 1
x[879] 0
x[880] 1
x[881] 1
x[882] 1
x[883] 1
x[884] 1
x[885] 0
x[886] 1
x[887] 1
x[888] 0
x[889] 0
x[890] 0
x[891] 1
x[892] 1
x[893] 0
x[894] 1
x[895] 1
x[896] 0
x[897] 0
x[898] 0
x[899] 1
x[900] 0
x[901] 0
x[902] 1
x[903] 1
x[904] 1
x[905] 1
x[906] 1
x[907] 0
x[908] 1
x[909] 1
x[910] 1
x[911] 0
x[912] 0
x[913] 0
x[914] 0
x[915] 0
x[916] 0
x[917] 0
x[918] 1
x[919] 1
x[920] 0
x[921] 1
x[922] 0
x[923] 1
x[924] 0
x[925] 1
x[926] 0
x[927] 1
x[928] 1
x[929] 1
x[930] 0
x[931] 0
x[932] 0
x[933] 0
x[934] 0
x[935] 0
x[936] 1
x[937] 0
x[938] 1
x[939] 0
x[940] 1
x[941] 0
x[942] 0
x[943] 1
x[944] 0
x[945] 0
x[946] 0
x[947] 0
x[948] 1
x[949] 0
x[950] 1
x[951] 0
x[952] 1
x[953] 0
x[954] 0
x[955] 0
x[956] 1
x[957] 1
x[958] 0
x[959] 1
x[960] 0
x[961] 1
x[962] 0
x[963] 1
x[964] 0
x[965] 0
x[966] 1
x[967] 0
x[968] 1
x[969] 1
x[970] 1
x[971] 1
x[972] 1
x[973] 1
x[974] 0
x[975] 1
x[976] 0
x[977] 1
x[978] 0
x[979] 0
x[980] 1
x[981] 0
x[982] 1
x[983] 1
x[984] 1
x[985] 1
x[986] 0
x[987] 1
x[988] 1
x[989] 1
x[990] 1
x[991] 1
x[992] 1
x[993] 0
x[994] 0
x[995] 1
x[996] 0
x[997] 0
x[998] 0
x[999] 1
